p cnf 190 620 
-1  2 0 
-3  2 0 
 1  3 -2 0 
 1 -4 0 
 3 -4 0 
-1 -3  4 0 
 2 -4 0 
-5  6 0 
-7  6 0 
 5  7 -6 0 
 5 -8 0 
 7 -8 0 
-5 -7  8 0 
 6 -8 0 
-2  9 0 
-6  9 0 
 2  6 -9 0 
 2 -10 0 
 6 -10 0 
-2 -6  10 0 
 9 -10 0 
-4  11 0 
-8  11 0 
 4  8 -11 0 
 4 -12 0 
 8 -12 0 
-4 -8  12 0 
 11 -12 0 
-11  13 0 
-10  13 0 
 11  10 -13 0 
 11 -14 0 
 10 -14 0 
-11 -10  14 0 
 13 -14 0 
-15  16 0 
-17  16 0 
 15  17 -16 0 
 15 -18 0 
 17 -18 0 
-15 -17  18 0 
 16 -18 0 
-19  20 0 
-21  20 0 
 19  21 -20 0 
 19 -22 0 
 21 -22 0 
-19 -21  22 0 
 20 -22 0 
-16  23 0 
-20  23 0 
 16  20 -23 0 
 16 -24 0 
 20 -24 0 
-16 -20  24 0 
 23 -24 0 
-18  25 0 
-22  25 0 
 18  22 -25 0 
 18 -26 0 
 22 -26 0 
-18 -22  26 0 
 25 -26 0 
-25  27 0 
-24  27 0 
 25  24 -27 0 
 25 -28 0 
 24 -28 0 
-25 -24  28 0 
 27 -28 0 
-9  29 0 
-23  29 0 
 9  23 -29 0 
 9 -30 0 
 23 -30 0 
-9 -23  30 0 
 29 -30 0 
-14  31 0 
-28  31 0 
 14  28 -31 0 
 14 -32 0 
 28 -32 0 
-14 -28  32 0 
 31 -32 0 
-31  33 0 
-30  33 0 
 31  30 -33 0 
 31 -34 0 
 30 -34 0 
-31 -30  34 0 
 33 -34 0 
-13  35 0 
-27  35 0 
 13  27 -35 0 
 13 -36 0 
 27 -36 0 
-13 -27  36 0 
 35 -36 0 
-12  37 0 
-26  37 0 
 12  26 -37 0 
 12 -38 0 
 26 -38 0 
-12 -26  38 0 
 37 -38 0 
-37  39 0 
-36  39 0 
 37  36 -39 0 
 37 -40 0 
 36 -40 0 
-37 -36  40 0 
 39 -40 0 
-35  41 0 
-33  41 0 
 35  33 -41 0 
 35 -42 0 
 33 -42 0 
-35 -33  42 0 
 41 -42 0 
-39  43 0 
-34  43 0 
 39  34 -43 0 
 39 -44 0 
 34 -44 0 
-39 -34  44 0 
 43 -44 0 
-40  45 0 
-32  45 0 
 40  32 -45 0 
 40 -46 0 
 32 -46 0 
-40 -32  46 0 
 45 -46 0 
-47  48 0 
-49  48 0 
 47  49 -48 0 
 47 -50 0 
 49 -50 0 
-47 -49  50 0 
 48 -50 0 
-51  52 0 
-53  52 0 
 51  53 -52 0 
 51 -54 0 
 53 -54 0 
-51 -53  54 0 
 52 -54 0 
-48  55 0 
-52  55 0 
 48  52 -55 0 
 48 -56 0 
 52 -56 0 
-48 -52  56 0 
 55 -56 0 
-50  57 0 
-54  57 0 
 50  54 -57 0 
 50 -58 0 
 54 -58 0 
-50 -54  58 0 
 57 -58 0 
-57  59 0 
-56  59 0 
 57  56 -59 0 
 57 -60 0 
 56 -60 0 
-57 -56  60 0 
 59 -60 0 
-61  62 0 
-63  62 0 
 61  63 -62 0 
 61 -64 0 
 63 -64 0 
-61 -63  64 0 
 62 -64 0 
-65  66 0 
-67  66 0 
 65  67 -66 0 
 65 -68 0 
 67 -68 0 
-65 -67  68 0 
 66 -68 0 
-62  69 0 
-66  69 0 
 62  66 -69 0 
 62 -70 0 
 66 -70 0 
-62 -66  70 0 
 69 -70 0 
-64  71 0 
-68  71 0 
 64  68 -71 0 
 64 -72 0 
 68 -72 0 
-64 -68  72 0 
 71 -72 0 
-71  73 0 
-70  73 0 
 71  70 -73 0 
 71 -74 0 
 70 -74 0 
-71 -70  74 0 
 73 -74 0 
-55  75 0 
-69  75 0 
 55  69 -75 0 
 55 -76 0 
 69 -76 0 
-55 -69  76 0 
 75 -76 0 
-60  77 0 
-74  77 0 
 60  74 -77 0 
 60 -78 0 
 74 -78 0 
-60 -74  78 0 
 77 -78 0 
-77  79 0 
-76  79 0 
 77  76 -79 0 
 77 -80 0 
 76 -80 0 
-77 -76  80 0 
 79 -80 0 
-59  81 0 
-73  81 0 
 59  73 -81 0 
 59 -82 0 
 73 -82 0 
-59 -73  82 0 
 81 -82 0 
-58  83 0 
-72  83 0 
 58  72 -83 0 
 58 -84 0 
 72 -84 0 
-58 -72  84 0 
 83 -84 0 
-83  85 0 
-82  85 0 
 83  82 -85 0 
 83 -86 0 
 82 -86 0 
-83 -82  86 0 
 85 -86 0 
-81  87 0 
-79  87 0 
 81  79 -87 0 
 81 -88 0 
 79 -88 0 
-81 -79  88 0 
 87 -88 0 
-85  89 0 
-80  89 0 
 85  80 -89 0 
 85 -90 0 
 80 -90 0 
-85 -80  90 0 
 89 -90 0 
-86  91 0 
-78  91 0 
 86  78 -91 0 
 86 -92 0 
 78 -92 0 
-86 -78  92 0 
 91 -92 0 
 29 -93 0 
 75 -93 0 
-29 -75  93 0 
 94 -93 0 
-44  95 0 
-90  95 0 
 44  90 -95 0 
-44 -90 0 
 95 -96 0 
 93 -96 0 
-95 -93  96 0 
 94 -96 0 
 42 -97 0 
 88 -97 0 
-42 -88  97 0 
 94 -97 0 
-46  98 0 
-92  98 0 
 46  92 -98 0 
-46 -92 0 
-98  99 0 
-97  99 0 
 98  97 -99 0 
-98 -97 0 
 99 -100 0 
 96 -100 0 
-99 -96  100 0 
 94 -100 0 
 41 -101 0 
 87 -101 0 
-41 -87  101 0 
 94 -101 0 
-45  102 0 
-91  102 0 
 45  91 -102 0 
-45 -91 0 
 102 -103 0 
 101 -103 0 
-102 -101  103 0 
 94 -103 0 
 43 -104 0 
 89 -104 0 
-43 -89  104 0 
 94 -104 0 
-38  105 0 
-84  105 0 
 38  84 -105 0 
-38 -84 0 
-105  106 0 
-104  106 0 
 105  104 -106 0 
-105 -104 0 
-106  107 0 
-103  107 0 
 106  103 -107 0 
-106 -103 0 
-107 -100 0 
-1  108 0 
-3  108 0 
 1  3 -108 0 
 1 -109 0 
 3 -109 0 
-1 -3  109 0 
 108 -109 0 
-5  110 0 
-7  110 0 
 5  7 -110 0 
 5 -111 0 
 7 -111 0 
-5 -7  111 0 
 110 -111 0 
-108  112 0 
-110  112 0 
 108  110 -112 0 
 108 -113 0 
 110 -113 0 
-108 -110  113 0 
 112 -113 0 
-109  114 0 
-111  114 0 
 109  111 -114 0 
 109 -115 0 
 111 -115 0 
-109 -111  115 0 
 114 -115 0 
-114  116 0 
-113  116 0 
 114  113 -116 0 
 114 -117 0 
 113 -117 0 
-114 -113  117 0 
 116 -117 0 
-15  118 0 
-17  118 0 
 15  17 -118 0 
 15 -119 0 
 17 -119 0 
-15 -17  119 0 
 118 -119 0 
-19  120 0 
-21  120 0 
 19  21 -120 0 
 19 -121 0 
 21 -121 0 
-19 -21  121 0 
 120 -121 0 
-118  122 0 
-120  122 0 
 118  120 -122 0 
 118 -123 0 
 120 -123 0 
-118 -120  123 0 
 122 -123 0 
-119  124 0 
-121  124 0 
 119  121 -124 0 
 119 -125 0 
 121 -125 0 
-119 -121  125 0 
 124 -125 0 
-124  126 0 
-123  126 0 
 124  123 -126 0 
 124 -127 0 
 123 -127 0 
-124 -123  127 0 
 126 -127 0 
 112  122 0 
 112 -128 0 
 122 -128 0 
-112 -122  128 0 
 129 -128 0 
-117  130 0 
-127  130 0 
 117  127 -130 0 
 117 -131 0 
 127 -131 0 
-117 -127  131 0 
 130 -131 0 
-130  132 0 
-128  132 0 
 130  128 -132 0 
 130 -133 0 
 128 -133 0 
-130 -128  133 0 
 132 -133 0 
-116  134 0 
-126  134 0 
 116  126 -134 0 
 116 -135 0 
 126 -135 0 
-116 -126  135 0 
 134 -135 0 
-115  136 0 
-125  136 0 
 115  125 -136 0 
 115 -137 0 
 125 -137 0 
-115 -125  137 0 
 136 -137 0 
-136  138 0 
-135  138 0 
 136  135 -138 0 
 136 -139 0 
 135 -139 0 
-136 -135  139 0 
 138 -139 0 
-134  140 0 
-132  140 0 
 134  132 -140 0 
 134 -141 0 
 132 -141 0 
-134 -132  141 0 
 140 -141 0 
-138  142 0 
-133  142 0 
 138  133 -142 0 
 138 -143 0 
 133 -143 0 
-138 -133  143 0 
 142 -143 0 
-139  144 0 
-131  144 0 
 139  131 -144 0 
 139 -145 0 
 131 -145 0 
-139 -131  145 0 
 144 -145 0 
-47  146 0 
-49  146 0 
 47  49 -146 0 
 47 -147 0 
 49 -147 0 
-47 -49  147 0 
 146 -147 0 
-51  148 0 
-53  148 0 
 51  53 -148 0 
 51 -149 0 
 53 -149 0 
-51 -53  149 0 
 148 -149 0 
-146  150 0 
-148  150 0 
 146  148 -150 0 
 146 -151 0 
 148 -151 0 
-146 -148  151 0 
 150 -151 0 
-147  152 0 
-149  152 0 
 147  149 -152 0 
 147 -153 0 
 149 -153 0 
-147 -149  153 0 
 152 -153 0 
-152  154 0 
-151  154 0 
 152  151 -154 0 
 152 -155 0 
 151 -155 0 
-152 -151  155 0 
 154 -155 0 
-61  156 0 
-63  156 0 
 61  63 -156 0 
 61 -157 0 
 63 -157 0 
-61 -63  157 0 
 156 -157 0 
-65  158 0 
-67  158 0 
 65  67 -158 0 
 65 -159 0 
 67 -159 0 
-65 -67  159 0 
 158 -159 0 
-156  160 0 
-158  160 0 
 156  158 -160 0 
 156 -161 0 
 158 -161 0 
-156 -158  161 0 
 160 -161 0 
-157  162 0 
-159  162 0 
 157  159 -162 0 
 157 -163 0 
 159 -163 0 
-157 -159  163 0 
 162 -163 0 
-162  164 0 
-161  164 0 
 162  161 -164 0 
 162 -165 0 
 161 -165 0 
-162 -161  165 0 
 164 -165 0 
 150  160 0 
 150 -166 0 
 160 -166 0 
-150 -160  166 0 
 129 -166 0 
-155  167 0 
-165  167 0 
 155  165 -167 0 
 155 -168 0 
 165 -168 0 
-155 -165  168 0 
 167 -168 0 
-167  169 0 
-166  169 0 
 167  166 -169 0 
 167 -170 0 
 166 -170 0 
-167 -166  170 0 
 169 -170 0 
-154  171 0 
-164  171 0 
 154  164 -171 0 
 154 -172 0 
 164 -172 0 
-154 -164  172 0 
 171 -172 0 
-153  173 0 
-163  173 0 
 153  163 -173 0 
 153 -174 0 
 163 -174 0 
-153 -163  174 0 
 173 -174 0 
-173  175 0 
-172  175 0 
 173  172 -175 0 
 173 -176 0 
 172 -176 0 
-173 -172  176 0 
 175 -176 0 
-171  177 0 
-169  177 0 
 171  169 -177 0 
 171 -178 0 
 169 -178 0 
-171 -169  178 0 
 177 -178 0 
-175  179 0 
-170  179 0 
 175  170 -179 0 
 175 -180 0 
 170 -180 0 
-175 -170  180 0 
 179 -180 0 
-176  181 0 
-168  181 0 
 176  168 -181 0 
 176 -182 0 
 168 -182 0 
-176 -168  182 0 
 181 -182 0 
 143  180 0 
 141  178 0 
 141 -183 0 
 178 -183 0 
-141 -178  183 0 
 129 -183 0 
-145  184 0 
-182  184 0 
 145  182 -184 0 
 184  183 0 
 140  177 0 
 140 -185 0 
 177 -185 0 
-140 -177  185 0 
 129 -185 0 
-144  186 0 
-181  186 0 
 144  181 -186 0 
 186  185 0 
 186 -187 0 
 185 -187 0 
-186 -185  187 0 
 129 -187 0 
 142  179 0 
 142 -188 0 
 179 -188 0 
-142 -179  188 0 
 129 -188 0 
-137  189 0 
-174  189 0 
 137  174 -189 0 
-189  190 0 
-188  190 0 
 189  188 -190 0 
 190  187 0 
